NAME: rue_20_9
TYPE: TSP
DIMENSION: 20
EDGE_WEIGHT_TYPE: EUC_2D
NODE_COORD_SECTION
1 8 32
2 30 8
3 19 25
4 39 22
5 5 10
6 12 29
7 36 21
8 12 36
9 30 36
10 40 6
11 7 9
12 11 28
13 6 33
14 21 32
15 40 37
16 16 4
17 33 17
18 20 23
19 23 37
20 5 27

